Translating instance to solver...

GLPSOL: GLPK LP/MIP Solver, v4.65
Parameter(s) specified in the command line:
 --tmlim 10 --mipgap 0.001 --write C:\Users\LUCASP~1\AppData\Local\Temp\tmpa5a0u0mt.glpk.raw
 --wglp C:\Users\LUCASP~1\AppData\Local\Temp\tmpb4s9jd85.glpk.glp --cpxlp
 C:\Users\LUCASP~1\AppData\Local\Temp\tmp4zku_t3b.pyomo.lp
Reading problem data from 'C:\Users\LUCASP~1\AppData\Local\Temp\tmp4zku_t3b.pyomo.lp'...
C:\Users\LUCASP~1\AppData\Local\Temp\tmp4zku_t3b.pyomo.lp:77276: warning: lower bound of variable 'x1' redefined
C:\Users\LUCASP~1\AppData\Local\Temp\tmp4zku_t3b.pyomo.lp:77276: warning: upper bound of variable 'x1' redefined
12727 rows, 7643 columns, 31381 non-zeros
7642 integer variables, 7620 of which are binary
84896 lines were read
Writing problem data to 'C:\Users\LUCASP~1\AppData\Local\Temp\tmpb4s9jd85.glpk.glp'...
59199 lines were written
GLPK Integer Optimizer, v4.65
12727 rows, 7643 columns, 31381 non-zeros
7642 integer variables, 7620 of which are binary
Preprocessing...
40 hidden packing inequaliti(es) were detected
1471 hidden covering inequaliti(es) were detected
95 constraint coefficient(s) were reduced
6373 rows, 2990 columns, 16121 non-zeros
2990 integer variables, 2970 of which are binary
Scaling...
 A: min|aij| =  1.000e+00  max|aij| =  2.100e+01  ratio =  2.100e+01
GM: min|aij| =  4.733e-01  max|aij| =  2.113e+00  ratio =  4.463e+00
EQ: min|aij| =  2.301e-01  max|aij| =  1.000e+00  ratio =  4.347e+00
2N: min|aij| =  2.500e-01  max|aij| =  1.375e+00  ratio =  5.500e+00
Constructing initial basis...
Size of triangular part is 6373
Solving LP relaxation...
GLPK Simplex Optimizer, v4.65
6373 rows, 2990 columns, 16121 non-zeros
      0: obj =   7.558910000e-01 inf =   4.663e+01 (67)
    221: obj =   4.422846000e+00 inf =   0.000e+00 (0) 1
*   453: obj =   3.401509500e+00 inf =   1.854e-13 (0) 1
OPTIMAL LP SOLUTION FOUND
Integer optimization begins...
Long-step dual simplex will be used
+   453: mip =     not found yet >=              -inf        (1; 0)
+   987: mip =     not found yet >=   3.554455000e+00        (14; 1)
+  1365: mip =     not found yet >=   3.653359625e+00        (35; 3)
TIME LIMIT EXCEEDED; SEARCH TERMINATED
Time used:   10.2 secs
Memory used: 11.7 Mb (12223952 bytes)
Writing MIP solution to 'C:\Users\LUCASP~1\AppData\Local\Temp\tmpa5a0u0mt.glpk.raw'...
20379 lines were written

Time in solver (for this epsilon): 10.823126316070557 s
Elapsed time (for this epsilon): 14.02777361869812 s


Total elapsed time since execution of first epsilon: 249.92763686180115 s


NO SOLUTION FOUND FOR THIS INSTANCE!
